WARNING: for repeatability, setting FPU to use double precision
============================[ Problem Statistics ]=============================
|                                                                             |
|  Number of variables:           100                                         |
|  Number of clauses:             449                                         |
|  Parse time:                   0.00 s                                       |
|  Eliminated clauses:           0.00 Mb                                      |
|  Simplification time:          0.00 s                                       |
|                                                                             |
============================[ Search Statistics ]==============================
| Conflicts |          ORIGINAL         |          LEARNT          | Progress |
|           |    Vars  Clauses Literals |    Limit  Clauses Lit/Cl |          |
===============================================================================
|       100 |      97      446     1361 |      163      100      7 |  0.010 % |
===============================================================================
restarts              : 2
conflicts             : 104            (46574 /sec)
decisions             : 148            (0.00 % random) (66279 /sec)
propagations          : 2353           (1053739 /sec)
conflict literals     : 734            (10.05 % deleted)
Memory used           : 13.00 MB
CPU time              : 0.002233 s

SATISFIABLE
